# Solution for model p01_budget_0p070
# Objective value = 7.0000000000062346e-02
Risk 7.0000000000062346e-02
0 0
1 0
3 0.001
4 30.001
5 3.0002000000000002e+01
6 40.002
7 4.1522413262007547e+01
9 8.4767266002726757e+01
c(0,1)_Rl 0.001
c(0,1)_Ru 0
c(0,3)_Rl 0
c(0,3)_Ru 0
c(3,4)_Rl 0
c(3,4)_Ru 0
c(4,5)_Rl 0
c(4,5)_Ru 0
c(3,5)_Rl 0
c(3,5)_Ru 0
c(1,2)_l 0
c(1,2)_u 4.1521413262007549e+01
c(2,7)_Fl 0
c(2,7)_Fu 3.5204804223925024e-02
c(1,7)_Rl 0
c(1,7)_Ru 0
c(5,6)_Rl 0
c(5,6)_Ru 0
c(3,6)_Rl 0
c(3,6)_Ru 0
c(7,8)_l 0
c(7,8)_u 4.3243852740719205e+01
c(1,8)_Fl 0
c(1,8)_Fu 1.7397597888068661e-02
c(0,9)_Rl 0
c(0,9)_Ru 4.8766666002726758e+01
c(8,9)_Fl 0
c(8,9)_Fu 1.7397597888068661e-02
c(6,9)_Rl 0
c(6,9)_Ru 0
Cost 4.8767666002726756e+01
